c File: instances/38_0.20_2.col
c
c Description: Random graph of size 38 vertices and P(0.2) of edges between any two vertices.
p col 38 703
e 1 6
e 1 13
e 1 14
e 1 22
e 1 24
e 1 26
e 1 28
e 1 30
e 1 32
e 2 3
e 2 4
e 2 8
e 2 16
e 2 22
e 2 31
e 3 5
e 3 7
e 3 10
e 3 12
e 3 14
e 3 15
e 3 17
e 3 28
e 3 32
e 3 36
e 4 6
e 4 10
e 4 14
e 4 19
e 4 37
e 5 7
e 5 11
e 5 32
e 5 33
e 5 34
e 5 35
e 5 38
e 6 7
e 6 9
e 6 16
e 6 21
e 6 24
e 6 26
e 6 31
e 6 32
e 6 37
e 7 9
e 7 22
e 7 30
e 7 37
e 8 12
e 8 18
e 8 20
e 8 22
e 8 23
e 8 30
e 8 35
e 9 17
e 9 18
e 9 22
e 9 24
e 9 30
e 9 35
e 10 12
e 10 13
e 10 14
e 10 17
e 10 24
e 10 26
e 10 27
e 11 19
e 11 21
e 11 24
e 11 26
e 11 30
e 11 33
e 11 34
e 12 15
e 12 18
e 12 25
e 12 29
e 12 33
e 12 34
e 13 19
e 13 21
e 13 26
e 13 29
e 13 30
e 13 31
e 13 32
e 13 36
e 14 17
e 14 23
e 14 24
e 14 30
e 14 35
e 15 24
e 15 29
e 15 32
e 15 33
e 16 20
e 16 35
e 17 22
e 17 23
e 17 24
e 17 28
e 17 31
e 18 20
e 18 23
e 19 23
e 19 36
e 20 23
e 20 29
e 20 32
e 20 33
e 20 37
e 21 27
e 22 24
e 22 28
e 22 34
e 22 36
e 23 34
e 23 35
e 24 30
e 24 33
e 24 36
e 24 37
e 24 38
e 25 27
e 26 28
e 26 29
e 26 30
e 26 34
e 26 35
e 27 38
e 28 35
e 29 32
e 29 34
e 29 36
e 29 37
e 31 34
e 32 37
e 34 38
e 35 36
e 35 38